% seed = 0

mint = 35;
% maxt = 190;

nActs = 92;
dur = [0,2,1,2,4,1,2,1,2,2,3,1,1,3,1,3,2,2,3,3,2,1,3,1,2,2,3,2,3,1,2,3,5,3,1,3,1,1,3,2,3,3,3,1,1,3,3,2,2,1,1,1,2,2,1,2,2,2,1,2,2,3,3,1,2,2,1,2,2,1,1,2,1,3,3,3,2,4,1,1,1,4,2,3,3,3,2,3,4,3,1,0];

nSkills = 12;
sreq = [| 0,0,0,0,0,0,0,0,0,0,0,0,
	| 0,0,1,0,0,1,0,0,0,0,1,0,
	| 0,0,0,0,0,1,0,0,0,1,1,0,
	| 0,0,1,0,0,0,1,1,0,0,0,1,
	| 0,0,1,0,1,0,1,1,0,0,0,0,
	| 0,0,1,1,0,1,1,0,0,0,0,0,
	| 0,0,0,0,0,1,1,0,0,0,1,0,
	| 0,1,1,0,0,1,0,0,0,0,0,0,
	| 0,0,1,0,0,0,1,1,0,0,0,1,
	| 0,0,1,0,0,0,0,0,0,0,1,0,
	| 0,0,1,0,1,2,0,0,0,0,0,0,
	| 0,0,1,0,2,0,0,0,0,0,0,1,
	| 0,1,0,1,0,0,0,0,0,1,0,0,
	| 0,1,0,1,0,0,0,1,0,0,0,0,
	| 0,0,0,1,0,0,0,0,1,0,0,0,
	| 0,1,1,0,0,0,0,0,0,0,1,0,
	| 1,0,0,0,1,0,0,0,0,0,0,0,
	| 0,1,0,0,0,0,0,0,0,0,0,0,
	| 0,0,1,0,2,0,0,0,0,1,0,0,
	| 0,0,0,0,1,0,0,0,0,0,0,1,
	| 0,0,0,0,1,0,1,0,0,0,0,0,
	| 0,0,0,0,0,1,0,0,0,0,1,0,
	| 0,1,0,0,0,2,0,0,0,0,0,1,
	| 1,0,0,0,0,0,1,0,1,0,0,0,
	| 0,0,1,0,0,0,0,0,0,0,0,1,
	| 0,0,0,0,1,0,0,0,0,0,0,0,
	| 0,0,1,0,1,1,0,0,0,0,0,0,
	| 0,0,0,0,0,1,0,1,0,0,0,0,
	| 0,1,0,0,0,0,0,0,1,0,0,1,
	| 0,0,0,0,2,0,0,0,0,0,0,0,
	| 0,0,1,0,0,0,0,0,0,0,0,0,
	| 0,2,0,1,0,0,0,0,0,0,1,0,
	| 0,0,0,1,0,2,0,0,0,0,1,0,
	| 0,0,2,0,0,0,0,0,0,1,0,0,
	| 0,1,0,0,0,0,0,0,0,1,0,0,
	| 0,1,1,0,0,0,0,0,0,0,0,0,
	| 0,0,0,0,1,2,0,0,0,0,0,0,
	| 0,0,1,0,1,1,0,0,0,0,0,1,
	| 0,0,0,0,0,0,0,0,0,0,0,1,
	| 0,0,1,1,0,1,1,0,0,0,0,0,
	| 0,0,0,0,0,0,0,0,0,0,0,1,
	| 0,0,0,0,1,0,0,0,0,0,0,0,
	| 0,0,1,1,0,0,0,0,0,0,0,1,
	| 0,0,0,0,1,1,0,0,0,0,0,1,
	| 0,0,2,0,0,0,0,0,0,0,0,0,
	| 0,0,2,0,0,1,0,0,0,0,0,0,
	| 0,0,1,0,2,0,0,0,0,0,0,0,
	| 0,0,1,1,1,0,0,1,0,0,0,0,
	| 0,0,0,1,0,1,0,0,0,0,0,0,
	| 0,0,0,1,1,0,0,1,1,0,0,0,
	| 0,1,0,0,0,2,0,0,0,0,0,0,
	| 0,0,1,1,1,0,0,0,0,0,0,1,
	| 0,0,1,0,0,0,0,1,0,0,0,0,
	| 0,0,0,0,0,0,0,0,0,0,1,0,
	| 0,0,0,1,0,0,0,0,0,0,0,0,
	| 0,1,0,0,0,0,0,0,0,0,0,1,
	| 0,0,0,1,0,0,1,1,0,0,0,0,
	| 0,0,1,0,0,1,2,0,0,0,0,0,
	| 0,0,1,0,1,1,1,0,0,0,0,0,
	| 0,0,0,0,0,0,0,0,0,0,2,0,
	| 0,1,1,0,0,0,0,0,1,0,0,1,
	| 0,0,0,0,1,0,0,1,1,0,0,0,
	| 0,1,1,0,0,2,0,0,0,0,0,0,
	| 0,1,0,0,0,1,0,0,0,0,0,0,
	| 1,0,1,0,0,0,0,0,0,0,0,1,
	| 0,0,0,0,0,0,0,0,0,0,1,0,
	| 0,0,0,0,2,0,0,0,0,0,0,0,
	| 0,1,1,0,0,0,0,0,1,0,0,0,
	| 1,0,0,0,0,0,0,0,0,0,0,0,
	| 0,1,0,0,1,1,0,0,0,0,1,0,
	| 0,0,1,0,2,0,0,1,0,0,0,0,
	| 0,1,0,0,1,1,0,0,1,0,0,0,
	| 0,0,0,0,2,0,0,1,0,0,0,1,
	| 1,0,0,0,0,0,0,0,0,0,0,0,
	| 0,0,1,0,0,0,1,0,0,0,0,1,
	| 0,0,1,0,0,0,0,0,0,0,0,0,
	| 0,0,0,0,0,0,0,0,0,0,0,1,
	| 0,0,1,0,2,1,0,0,0,0,0,0,
	| 0,1,1,1,0,0,0,0,0,1,0,0,
	| 0,1,1,0,0,0,0,0,0,0,1,0,
	| 0,0,1,0,2,1,0,0,0,0,0,0,
	| 0,0,1,0,0,0,0,0,0,0,0,0,
	| 0,1,0,1,0,0,0,0,0,0,0,0,
	| 0,0,0,0,0,1,0,0,0,0,0,0,
	| 0,1,0,0,0,0,1,0,0,0,0,0,
	| 0,0,0,0,1,1,1,0,0,1,0,0,
	| 0,1,2,0,0,1,0,0,0,0,0,0,
	| 0,1,0,0,0,1,0,0,0,0,1,1,
	| 0,0,0,0,0,1,0,0,0,0,0,1,
	| 0,0,1,0,1,0,0,0,0,0,0,0,
	| 0,0,2,0,0,1,0,0,0,0,1,0,
	| 0,0,0,0,0,0,0,0,0,0,0,0, |];

% SumOfsreq = 248;

nResources = 14;
mastery = [| false,false,false,false,true,true,false,true,true,false,false,false,
	| true,true,true,false,true,true,false,false,false,false,false,false,
	| false,false,true,false,false,false,false,false,false,false,false,true,
	| false,false,false,true,true,true,false,false,false,false,false,true,
	| false,false,false,false,false,false,false,false,false,false,false,true,
	| false,false,false,false,false,false,true,true,true,false,false,false,
	| false,false,false,false,false,false,false,false,false,true,true,true,
	| false,false,false,true,true,true,true,true,true,false,false,false,
	| false,false,false,true,true,true,false,false,false,false,false,false,
	| false,false,false,true,true,true,false,false,false,false,false,false,
	| false,false,true,false,false,false,true,true,true,true,true,true,
	| false,true,true,false,false,false,false,false,false,false,false,false,
	| false,true,true,false,false,false,false,false,false,false,false,false,
	| false,false,true,false,false,false,false,false,false,false,false,false, |];

nPrecs = 138;
pred = [1,1,1,2,2,3,3,3,4,4,5,5,5,6,6,6,7,7,7,8,8,8,9,9,9,10,10,11,11,11,12,12,13,13,14,14,14,15,15,16,16,16,17,18,18,18,19,19,19,20,21,22,22,23,23,24,25,26,26,26,27,27,27,28,29,30,31,31,32,32,33,34,35,36,36,36,37,38,38,39,39,40,41,41,41,42,43,44,45,46,47,48,48,49,50,51,52,53,54,55,56,57,58,58,59,60,61,62,63,64,65,66,67,67,68,69,70,71,72,73,74,75,76,77,78,79,80,81,82,83,84,85,86,87,88,89,90,91];
succ = [2,3,4,10,36,12,38,8,27,5,19,6,7,11,13,23,9,43,72,49,50,28,41,14,39,29,16,48,31,40,76,77,21,15,18,20,37,17,67,73,42,24,22,22,47,30,57,35,56,26,33,25,63,65,83,35,26,44,69,62,51,52,32,78,84,89,34,80,45,70,74,58,47,65,60,64,75,58,47,46,54,66,82,77,55,79,57,66,88,68,69,83,61,53,59,71,87,76,57,81,61,73,66,59,71,70,88,79,81,79,68,84,90,86,82,74,77,78,85,84,89,78,81,91,86,83,85,89,90,85,86,88,91,91,90,92,92,92];

nUnrels = 3192;
unpred = [2,2,2,2,2,2,2,2,2,2,2,2,2,2,2,2,2,2,2,2,2,2,2,2,2,2,2,2,2,2,2,2,2,2,2,2,2,2,2,2,2,2,2,2,2,2,2,2,2,2,2,2,2,2,2,2,2,2,2,2,2,2,3,3,3,3,3,3,3,3,3,3,3,3,3,3,3,3,3,3,3,3,3,3,3,3,3,3,3,3,3,3,3,3,3,3,3,3,3,3,3,3,3,3,3,3,3,3,3,3,3,3,3,3,3,3,3,3,3,3,3,3,3,3,3,3,3,3,4,4,4,4,4,4,4,4,4,4,4,4,4,4,4,4,5,5,5,5,5,5,5,5,5,5,5,5,5,5,5,5,5,5,5,5,5,5,5,6,6,6,6,6,6,6,6,6,6,6,6,6,6,6,6,6,6,6,6,6,6,6,6,6,6,6,6,6,6,6,6,6,6,6,6,6,6,6,6,6,6,6,6,6,7,7,7,7,7,7,7,7,7,7,7,7,7,7,7,7,7,7,7,7,7,7,7,7,7,7,7,7,7,7,7,7,7,7,7,7,7,7,7,7,7,7,7,7,8,8,8,8,8,8,8,8,8,8,8,8,8,8,8,8,8,8,8,8,8,8,8,8,8,8,8,8,8,8,8,8,8,8,8,8,8,8,8,8,8,8,8,8,8,8,8,8,8,8,8,8,8,8,8,8,8,8,8,8,8,8,8,8,8,8,8,8,8,8,8,9,9,9,9,9,9,9,9,9,9,9,9,9,9,9,9,9,9,9,9,9,9,9,9,9,9,9,9,9,9,9,9,9,9,9,9,9,9,9,9,9,9,9,9,9,10,10,10,10,10,10,10,10,10,10,10,10,10,10,10,10,10,10,10,10,10,10,10,10,10,10,10,10,10,10,10,10,10,10,10,10,10,10,10,10,10,10,10,10,10,10,10,10,10,10,10,10,10,10,10,10,10,10,10,10,10,10,10,11,11,11,11,11,11,11,11,11,11,11,11,11,11,11,11,11,11,11,11,11,11,11,11,11,11,11,11,11,11,11,11,11,11,11,11,11,11,11,11,11,11,11,11,11,11,11,11,11,11,11,11,11,11,11,11,11,11,11,11,11,11,12,12,12,12,12,12,12,12,12,12,12,12,12,12,12,12,12,12,12,12,12,12,12,12,12,12,12,12,12,12,12,12,12,12,12,12,12,12,12,12,12,12,12,12,12,12,12,12,12,12,12,12,12,12,12,12,12,12,12,12,12,12,12,12,12,12,12,12,12,12,12,12,12,12,13,13,13,13,13,13,13,13,13,13,13,13,13,13,13,13,13,13,13,13,13,13,13,13,13,13,13,13,13,13,13,13,13,13,13,13,13,13,13,13,13,13,13,13,13,13,13,13,13,13,13,13,13,13,14,14,14,14,14,14,14,14,14,14,14,14,14,14,14,14,14,14,14,14,14,14,14,14,14,14,14,14,14,14,14,14,14,14,14,14,14,14,14,14,14,14,14,14,14,14,14,14,14,14,14,15,15,15,15,15,15,15,15,15,15,15,15,15,15,15,15,15,15,15,15,15,15,15,15,15,15,15,15,15,15,15,15,15,15,15,15,15,15,15,15,15,15,15,15,15,15,15,15,15,15,15,15,15,15,15,16,16,16,16,16,16,16,16,16,16,16,16,16,16,16,16,16,16,16,16,16,16,16,16,16,16,16,16,16,16,16,16,16,16,16,16,16,16,16,16,16,16,16,16,16,16,16,16,16,16,16,16,16,16,16,16,16,16,16,17,17,17,17,17,17,17,17,17,17,17,17,17,17,17,17,17,17,17,17,17,17,17,17,17,17,17,17,17,17,17,17,17,17,17,17,17,17,17,17,17,17,17,17,17,17,17,17,17,17,17,17,17,17,17,18,18,18,18,18,18,18,18,18,18,18,18,18,18,18,18,18,18,18,18,18,18,18,18,18,18,18,18,18,18,18,18,18,18,18,18,18,18,18,18,18,18,18,18,18,18,18,18,18,18,18,18,19,19,19,19,19,19,19,19,19,19,19,19,19,19,19,19,19,19,19,19,19,19,19,19,19,19,19,19,19,19,19,19,19,19,19,19,19,19,19,19,19,19,19,19,19,19,19,19,19,19,19,19,19,19,19,19,19,19,20,20,20,20,20,20,20,20,20,20,20,20,20,20,20,20,20,20,20,20,20,20,20,20,20,20,20,20,20,20,20,20,20,20,20,20,20,20,20,20,20,20,20,20,20,20,20,20,20,20,20,20,20,20,20,20,21,21,21,21,21,21,21,21,21,21,21,21,21,21,21,21,21,21,21,21,21,21,21,21,21,21,21,21,21,21,21,21,21,21,21,21,21,21,21,21,21,21,21,21,21,21,21,21,21,21,21,21,21,21,21,21,21,21,21,21,21,21,21,21,21,21,21,22,22,22,22,22,22,22,22,22,22,22,22,22,22,22,22,22,22,22,22,22,22,22,22,22,22,22,22,22,22,22,22,22,22,22,22,22,22,22,22,22,22,22,22,22,22,22,22,22,22,22,23,23,23,23,23,23,23,23,23,23,23,23,23,23,23,23,23,23,23,23,23,23,23,23,23,23,23,23,23,23,23,23,23,23,23,23,23,23,23,23,23,23,23,23,23,23,23,23,23,23,23,23,23,23,23,23,23,23,23,23,23,24,24,24,24,24,24,24,24,24,24,24,24,24,24,24,24,24,24,24,24,24,24,24,24,24,24,24,24,24,24,24,24,24,24,24,24,24,24,24,24,24,24,24,24,24,24,24,24,24,24,24,24,24,24,24,24,24,24,24,24,24,24,25,25,25,25,25,25,25,25,25,25,25,25,25,25,25,25,25,25,25,25,25,25,25,25,25,25,25,25,25,25,25,25,25,25,25,25,25,25,25,25,25,25,25,25,25,25,25,25,25,25,25,26,26,26,26,26,26,26,26,26,26,26,26,26,26,26,26,26,26,26,26,26,26,26,26,26,26,26,26,26,26,26,26,26,26,26,26,26,26,26,26,26,26,26,26,26,26,26,26,26,26,26,27,27,27,27,27,27,27,27,27,27,27,27,27,27,27,27,27,27,27,27,27,27,27,27,27,27,27,27,27,27,27,27,27,27,27,27,27,27,27,27,27,27,27,27,27,27,27,27,27,27,27,28,28,28,28,28,28,28,28,28,28,28,28,28,28,28,28,28,28,28,28,28,28,28,28,28,28,28,28,28,28,28,28,28,28,28,28,28,28,28,28,28,28,28,28,28,28,28,28,28,28,28,28,28,28,28,28,28,28,28,28,29,29,29,29,29,29,29,29,29,29,29,29,29,29,29,29,29,29,29,29,29,29,29,29,29,29,29,29,29,29,29,29,29,29,29,29,29,29,29,29,29,29,29,29,29,29,29,29,29,29,29,29,29,29,29,29,29,29,29,30,30,30,30,30,30,30,30,30,30,30,30,30,30,30,30,30,30,30,30,30,30,30,30,30,30,30,30,30,30,30,30,30,30,30,30,30,30,30,30,30,30,30,30,30,30,30,30,30,30,30,30,30,30,30,30,30,30,30,30,31,31,31,31,31,31,31,31,31,31,31,31,31,31,31,31,31,31,31,31,31,31,31,31,31,31,31,31,31,31,31,31,31,31,31,31,31,31,31,31,31,31,31,31,31,31,31,32,32,32,32,32,32,32,32,32,32,32,32,32,32,32,32,32,32,32,32,32,32,32,32,32,32,32,32,32,32,32,32,32,32,32,32,32,32,32,32,32,32,32,32,32,32,32,32,32,32,32,32,32,33,33,33,33,33,33,33,33,33,33,33,33,33,33,33,33,33,33,33,33,33,33,33,33,33,33,33,33,33,33,33,33,33,33,33,33,33,33,33,33,33,33,33,33,33,33,33,33,33,33,33,33,33,33,33,33,34,34,34,34,34,34,34,34,34,34,34,34,34,34,34,34,34,34,34,34,34,34,34,34,34,34,34,34,34,34,34,34,34,34,34,34,34,34,34,34,34,34,34,34,34,34,34,34,34,35,35,35,35,35,35,35,35,35,35,35,35,35,35,35,35,35,35,35,35,35,35,35,35,35,35,35,35,35,35,35,35,35,35,35,35,35,35,35,35,35,35,35,35,35,35,35,35,35,35,35,35,36,36,36,36,36,36,36,36,36,36,36,36,36,36,36,36,36,36,36,36,36,36,36,36,36,36,36,36,36,36,36,36,36,36,36,36,36,36,36,36,36,36,37,37,37,37,37,37,37,37,37,37,37,37,37,37,37,37,37,37,37,37,37,37,37,37,37,37,37,37,37,37,37,37,37,37,37,37,37,37,37,37,37,37,37,37,37,37,37,37,37,37,38,38,38,38,38,38,38,38,38,38,38,38,38,38,38,38,38,38,38,38,38,38,38,38,38,38,38,38,38,38,38,38,38,38,38,38,38,38,38,38,38,39,39,39,39,39,39,39,39,39,39,39,39,39,39,39,39,39,39,39,39,39,39,39,39,39,39,39,39,39,39,39,39,39,39,39,39,39,39,39,39,39,39,40,40,40,40,40,40,40,40,40,40,40,40,40,40,40,40,40,40,40,40,40,40,40,40,40,40,40,40,40,40,40,40,40,40,40,40,40,40,40,40,40,40,40,40,40,40,40,41,41,41,41,41,41,41,41,41,41,41,41,41,41,41,41,41,41,41,41,41,41,41,41,41,41,41,41,41,41,41,41,41,41,41,41,41,41,41,41,41,41,41,42,42,42,42,42,42,42,42,42,42,42,42,42,42,42,42,42,42,42,42,42,42,42,42,42,42,42,42,42,42,42,42,42,42,42,42,42,42,42,42,42,42,42,42,43,43,43,43,43,43,43,43,43,43,43,43,43,43,43,43,43,43,43,43,43,43,43,43,43,43,43,43,43,43,43,43,43,43,43,43,43,43,43,43,43,43,43,44,44,44,44,44,44,44,44,44,44,44,44,44,44,44,44,44,44,44,44,44,44,44,44,44,44,44,44,44,44,44,44,44,44,44,44,44,44,44,44,44,44,44,45,45,45,45,45,45,45,45,45,45,45,45,45,45,45,45,45,45,45,45,45,45,45,45,45,45,45,45,45,45,45,45,45,45,45,45,45,45,45,45,45,45,45,45,46,46,46,46,46,46,46,46,46,46,46,46,46,46,46,46,46,46,46,46,46,46,46,46,46,46,46,46,46,46,46,46,46,46,46,46,46,46,46,46,46,46,47,47,47,47,47,47,47,47,47,47,47,47,47,47,47,47,47,47,47,47,47,47,47,47,47,47,47,47,47,47,47,47,47,47,47,47,47,47,47,47,47,48,48,48,48,48,48,48,48,48,48,48,48,48,48,48,48,48,48,48,48,48,48,48,48,48,48,48,48,48,48,48,48,48,48,48,48,48,48,49,49,49,49,49,49,49,49,49,49,49,49,49,49,49,49,49,49,49,49,49,49,49,49,49,49,49,49,49,49,49,49,49,49,49,49,49,49,50,50,50,50,50,50,50,50,50,50,50,50,50,50,50,50,50,50,50,50,50,50,50,50,50,50,50,50,50,50,50,50,50,50,50,50,51,51,51,51,51,51,51,51,51,51,51,51,51,51,51,51,51,51,51,51,51,51,51,51,51,51,51,51,51,51,51,51,51,51,51,51,52,52,52,52,52,52,52,52,52,52,52,52,52,52,52,52,52,52,52,52,52,52,52,52,52,52,52,52,52,52,52,52,52,52,52,52,52,53,53,53,53,53,53,53,53,53,53,53,53,53,53,53,53,53,53,53,53,53,53,53,53,53,53,53,53,53,53,53,53,53,53,53,54,54,54,54,54,54,54,54,54,54,54,54,54,54,54,54,54,54,54,54,54,54,54,54,54,54,54,54,54,54,54,54,55,55,55,55,55,55,55,55,55,55,55,55,55,55,55,55,55,55,55,55,55,55,55,55,55,55,55,55,55,55,55,55,55,55,56,56,56,56,56,56,56,56,56,56,56,56,56,56,56,56,56,56,56,56,56,56,56,56,56,56,56,56,56,56,56,56,57,57,57,57,57,57,57,57,57,57,57,57,57,57,57,57,57,57,57,57,57,57,57,57,57,57,57,57,57,57,58,58,58,58,58,58,58,58,58,58,58,58,58,58,58,58,58,58,58,58,58,58,58,58,58,58,59,59,59,59,59,59,59,59,59,59,59,59,59,59,59,59,59,59,59,59,59,59,59,59,59,59,59,59,60,60,60,60,60,60,60,60,60,60,60,60,60,60,60,60,60,60,60,60,60,60,60,60,60,60,60,60,61,61,61,61,61,61,61,61,61,61,61,61,61,61,61,61,61,61,61,61,61,61,61,61,61,61,61,61,62,62,62,62,62,62,62,62,62,62,62,62,62,62,62,62,62,62,62,62,62,62,62,62,63,63,63,63,63,63,63,63,63,63,63,63,63,63,63,63,63,63,63,63,63,63,63,63,63,63,64,64,64,64,64,64,64,64,64,64,64,64,64,64,64,64,64,64,64,64,64,64,65,65,65,65,65,65,65,65,65,65,65,65,65,65,65,65,65,65,65,65,65,65,65,66,66,66,66,66,66,66,66,66,66,66,66,66,66,66,66,66,66,66,66,66,66,67,67,67,67,67,67,67,67,67,67,67,67,67,67,67,67,67,67,67,67,67,68,68,68,68,68,68,68,68,68,68,68,68,68,68,68,68,68,68,68,68,68,69,69,69,69,69,69,69,69,69,69,69,69,69,69,69,69,69,69,69,69,70,70,70,70,70,70,70,70,70,70,70,70,70,70,70,70,70,70,70,71,71,71,71,71,71,71,71,71,71,71,71,71,71,71,71,71,72,72,72,72,72,72,72,72,72,72,72,72,72,72,72,72,73,73,73,73,73,73,73,73,73,73,73,73,73,73,73,74,74,74,74,74,74,74,74,74,74,74,74,74,74,74,74,75,75,75,75,75,75,75,75,75,75,75,75,75,76,76,76,76,76,76,76,76,76,76,76,76,76,77,77,77,77,77,77,77,77,77,77,77,77,77,78,78,78,78,78,78,78,78,78,78,78,79,79,79,79,79,79,79,79,80,80,80,80,80,80,80,80,81,81,81,81,81,81,81,81,81,82,82,82,82,82,82,82,82,83,83,83,83,83,84,84,84,84,84,85,85,85,85,86,86,86,86,87,87,87,88,88,89,89,90];
unsucc = [3,4,5,6,7,8,9,11,12,13,14,15,17,18,19,20,21,22,23,25,26,27,28,30,31,32,33,34,37,38,39,40,41,43,44,45,46,48,49,50,51,52,53,54,55,56,57,58,59,61,62,63,66,67,71,72,75,76,78,80,81,87,4,5,6,7,9,10,11,13,14,15,16,17,18,19,20,21,22,23,24,25,26,27,29,30,31,32,33,34,35,36,37,39,40,41,42,43,44,45,46,48,51,52,54,55,56,57,60,61,62,63,64,65,67,68,70,72,73,75,79,80,82,83,85,87,88,90,8,10,12,16,24,28,29,36,38,42,49,50,53,60,64,76,8,10,12,16,24,27,28,29,32,36,38,42,45,49,50,51,52,53,60,64,70,76,87,7,8,9,10,12,14,16,18,19,20,24,27,28,29,30,32,35,36,37,38,39,41,42,43,45,46,47,49,50,51,52,53,54,55,56,57,60,64,70,72,73,75,76,77,87,8,10,11,12,13,15,16,17,19,21,23,24,27,28,29,31,32,33,34,35,36,38,40,42,45,48,49,50,51,52,53,56,58,59,60,61,64,65,67,70,71,76,80,87,9,10,11,12,13,14,15,16,17,18,19,20,21,22,23,24,25,26,27,29,30,31,32,33,34,35,36,37,38,39,40,41,42,43,44,45,46,47,48,51,52,54,55,56,57,58,60,61,62,63,64,65,66,67,68,69,70,72,73,74,75,77,79,80,82,83,84,85,87,88,90,10,11,12,13,15,16,17,19,21,23,24,27,28,29,31,32,33,34,35,36,38,40,42,43,45,48,49,50,51,52,53,56,58,59,60,61,64,65,67,70,71,72,76,80,87,11,12,13,14,15,17,18,19,20,21,22,23,25,26,27,28,30,31,32,33,34,36,37,38,39,40,41,43,44,45,46,48,49,50,51,52,53,54,55,56,57,58,59,60,61,62,63,64,65,66,67,68,70,71,72,75,76,77,78,80,81,82,87,12,13,14,15,16,17,18,19,20,21,22,23,24,25,26,27,28,29,30,32,33,35,36,37,38,39,41,42,43,44,45,46,47,49,50,51,52,53,54,55,56,57,60,62,63,64,65,67,68,69,70,72,73,74,75,76,77,79,81,82,87,89,13,14,15,16,17,18,19,20,21,22,23,24,25,26,27,28,29,30,31,32,33,34,35,36,37,38,39,40,41,42,43,44,45,46,47,48,49,50,51,52,53,54,55,56,57,58,59,60,61,62,63,64,65,66,67,68,69,70,71,72,73,74,75,78,79,80,82,83,84,85,86,87,88,90,14,16,18,19,20,23,24,27,28,29,30,31,32,34,35,36,37,38,39,40,41,42,43,45,46,47,48,49,50,51,52,53,54,55,56,57,58,59,60,61,64,65,68,70,71,72,73,75,76,77,78,80,82,87,15,16,17,19,21,23,24,27,28,29,31,32,33,34,35,36,38,39,40,41,42,43,45,46,48,49,50,51,52,53,54,55,56,57,58,59,60,61,64,65,67,68,70,71,72,73,76,77,80,82,87,16,18,19,20,21,23,24,27,28,29,30,31,32,33,34,35,36,37,38,39,40,41,42,43,45,46,47,48,49,50,51,52,53,54,55,56,57,58,59,60,61,64,65,68,70,71,72,73,75,76,77,78,80,82,87,17,18,19,20,21,22,23,25,26,27,28,29,30,31,32,33,34,36,37,38,39,40,41,43,44,45,46,48,49,50,51,52,53,54,55,56,57,58,59,60,61,62,63,64,65,66,67,68,70,71,72,75,76,77,78,80,81,82,87,18,19,20,21,23,24,27,28,29,30,31,32,33,34,35,36,37,38,39,40,41,42,43,45,46,47,48,49,50,51,52,53,54,55,56,57,58,59,60,61,64,65,67,68,70,71,72,73,75,76,77,78,80,82,87,19,20,21,23,24,27,28,29,31,32,33,34,35,36,37,38,39,40,41,42,43,45,46,48,49,50,51,52,53,54,55,56,57,58,59,60,61,64,65,67,68,70,71,72,73,75,76,77,78,80,82,87,20,21,22,23,24,25,26,27,28,29,30,31,32,33,34,36,37,38,39,40,41,42,43,44,45,46,48,49,50,51,52,53,54,55,58,59,60,62,63,64,65,66,67,68,70,71,72,75,76,77,78,79,80,81,82,83,85,87,21,22,23,24,25,27,28,29,30,31,32,33,34,35,36,37,38,39,40,41,42,43,45,46,47,48,49,50,51,52,53,54,55,56,57,58,59,60,61,63,64,65,67,68,70,71,72,73,75,76,77,78,80,81,82,87,22,23,24,25,26,27,28,29,30,31,32,34,35,36,37,38,39,40,41,42,43,44,45,46,47,48,49,50,51,52,53,54,55,56,57,58,59,60,61,62,63,64,65,66,67,68,69,70,71,72,73,75,76,77,78,79,80,81,82,83,84,85,86,87,88,90,91,23,24,27,28,29,30,31,32,33,34,35,36,37,38,39,40,41,42,43,45,46,47,48,49,50,51,52,53,54,55,56,57,58,59,60,61,64,65,67,68,70,71,72,73,75,76,77,78,80,82,87,24,25,26,27,28,29,30,31,32,33,34,35,36,37,38,39,40,41,42,43,44,45,46,47,48,49,50,51,52,53,54,55,56,57,58,59,60,61,62,63,64,66,67,69,70,71,72,73,74,75,76,77,78,79,80,81,84,86,87,89,91,25,26,27,28,29,30,31,32,33,34,36,37,38,39,40,41,42,43,44,45,46,48,49,50,51,52,53,54,55,56,57,58,59,60,61,62,63,64,65,66,67,68,70,71,72,73,75,76,77,78,79,80,81,82,83,84,85,86,87,88,90,91,27,28,29,30,31,32,33,34,35,36,37,38,39,40,41,42,43,45,46,47,48,49,50,51,52,53,54,55,56,57,58,59,60,61,63,64,65,67,68,70,71,72,73,75,76,77,78,80,81,82,87,27,28,29,30,31,32,33,34,35,36,37,38,39,40,41,42,43,45,46,47,48,49,50,51,52,53,54,55,56,57,58,59,60,61,63,64,65,67,68,70,71,72,73,75,76,77,78,80,81,82,87,28,29,30,31,33,34,35,36,37,38,39,40,41,42,43,44,46,47,48,49,50,53,54,55,56,57,58,59,60,61,62,63,64,65,66,67,68,69,72,73,74,75,76,79,80,81,82,83,84,85,89,29,30,31,32,33,34,35,36,37,38,39,40,41,42,43,44,45,46,47,48,49,50,51,52,53,54,55,56,57,58,59,60,61,62,63,64,65,66,67,68,69,70,71,72,73,74,75,76,77,79,80,81,82,83,84,85,87,88,89,90,30,31,32,33,34,35,36,37,38,39,40,41,42,43,44,45,46,47,48,49,50,51,52,53,54,55,56,57,58,59,60,61,62,63,64,65,66,67,68,69,70,71,72,73,74,75,76,77,78,79,80,81,82,83,85,87,88,89,90,31,32,33,34,35,36,37,38,39,40,41,42,43,44,45,46,47,48,49,50,51,52,53,54,55,56,57,58,59,60,61,62,63,64,65,66,67,68,69,70,71,72,73,74,75,76,77,78,79,80,81,82,83,84,85,86,87,88,90,91,32,33,35,36,37,38,39,40,41,42,43,44,45,46,47,48,49,50,51,52,53,54,55,56,57,60,61,62,63,64,65,67,68,69,70,72,73,74,75,76,77,79,81,82,83,87,89,33,34,35,36,37,38,39,40,41,42,43,44,46,47,48,49,50,51,52,53,54,55,56,57,58,59,60,61,62,63,64,65,66,67,68,69,71,72,73,74,75,76,78,79,80,81,82,83,84,85,86,87,89,34,35,36,37,38,39,40,41,42,43,44,45,46,47,48,49,50,51,52,53,54,55,56,57,58,59,60,61,62,63,64,65,66,67,68,69,70,71,72,73,75,76,77,78,79,80,81,82,83,84,85,86,87,88,90,91,35,36,37,38,39,40,41,42,43,44,45,46,47,48,49,50,51,52,53,54,55,56,57,60,61,62,63,64,65,67,68,69,70,72,73,74,75,76,77,79,80,81,82,83,85,87,88,89,90,36,37,38,39,40,41,42,43,44,45,46,48,49,50,51,52,53,54,55,56,57,58,59,60,61,62,63,64,65,66,67,68,70,71,72,73,75,76,77,78,79,80,81,82,83,84,85,86,87,88,90,91,37,38,39,40,41,42,43,44,45,46,47,48,49,50,51,52,53,54,55,56,57,58,59,61,62,63,66,67,69,71,72,73,74,75,76,78,80,81,84,86,87,89,38,39,40,41,42,43,44,45,46,47,48,49,50,51,52,53,54,55,56,57,58,59,60,61,62,63,64,65,66,67,68,69,70,71,72,73,74,76,77,79,80,81,82,83,84,85,87,88,89,90,39,40,41,42,43,44,45,46,48,49,50,51,52,53,54,55,56,57,60,61,62,63,64,65,67,68,70,72,73,75,76,77,79,80,81,82,83,85,87,88,90,40,41,42,43,44,45,47,48,49,50,51,52,53,55,56,58,59,60,61,62,63,64,65,66,67,69,70,71,72,74,75,76,77,78,79,80,81,83,85,87,88,89,41,42,43,44,45,46,47,48,49,50,51,52,53,54,55,56,57,58,59,60,61,62,63,64,65,67,68,69,70,71,72,73,74,75,76,77,78,79,80,81,82,83,85,87,88,89,90,42,43,44,45,46,47,48,49,50,51,52,53,54,56,57,58,59,60,61,62,63,64,65,66,67,68,69,70,71,72,73,74,75,76,78,79,80,83,84,85,86,87,88,43,44,45,46,47,48,49,50,51,52,53,54,55,56,57,58,59,60,61,62,63,64,65,66,67,68,69,70,71,72,73,74,75,76,77,78,80,81,82,84,86,87,89,91,44,45,46,47,48,49,50,51,52,53,54,55,56,58,59,60,61,62,63,64,65,66,67,68,69,70,71,72,74,75,76,77,78,79,80,81,82,83,85,87,88,89,90,45,46,47,48,49,50,51,52,53,54,55,56,57,58,59,60,61,62,63,64,65,67,68,69,70,71,72,73,74,75,76,77,78,79,80,81,82,83,85,87,88,89,90,46,47,48,49,50,51,52,53,54,55,56,57,58,59,60,61,62,63,64,65,66,67,68,69,70,71,72,73,74,75,76,77,78,79,80,81,82,83,84,85,86,87,89,91,47,48,49,50,51,52,53,54,55,56,57,58,59,60,61,62,63,64,65,66,67,69,70,71,72,73,74,75,76,77,78,79,80,81,83,84,85,86,87,88,89,91,48,49,50,51,52,53,54,55,56,57,58,59,60,61,62,63,64,65,66,67,68,70,71,72,73,75,76,77,78,79,80,81,82,83,84,85,86,87,88,90,91,49,50,51,52,53,54,55,56,57,58,59,60,62,63,64,65,66,67,68,69,70,71,72,73,74,75,76,77,78,79,80,81,82,84,86,87,89,91,50,51,52,54,55,56,57,58,59,60,61,62,63,64,65,66,67,68,69,70,71,72,73,74,75,77,78,79,80,82,83,84,85,86,87,88,90,91,51,52,53,54,55,56,57,58,60,61,62,63,64,65,66,67,68,69,70,72,73,74,75,76,77,79,80,81,82,83,84,85,87,88,89,90,52,53,54,55,56,57,58,59,60,61,62,63,64,65,66,67,68,69,70,72,73,74,75,76,77,79,80,81,82,83,84,85,87,88,89,90,53,54,55,56,57,58,59,60,61,62,63,64,65,66,67,68,69,70,71,72,73,74,75,76,77,78,79,80,81,82,83,84,85,86,88,89,90,54,55,56,57,58,59,60,61,62,63,64,65,66,67,68,69,70,71,72,73,74,75,77,78,79,80,82,83,84,85,86,87,88,90,91,55,56,58,59,60,61,62,63,64,65,66,67,68,69,70,71,72,74,75,76,77,78,79,80,81,82,83,85,87,88,89,90,56,57,58,59,60,61,62,63,64,65,66,67,68,69,70,71,72,73,74,75,76,77,78,79,80,82,83,84,85,86,87,88,90,91,57,58,59,60,62,63,64,65,66,67,68,69,70,71,72,73,74,75,76,77,78,79,80,81,82,83,84,85,86,87,89,91,58,59,60,61,62,63,64,65,66,67,68,69,70,71,72,74,75,76,77,78,79,80,81,82,83,85,87,88,89,90,60,61,62,63,64,65,67,68,69,70,72,73,74,75,76,77,79,80,81,82,83,85,87,88,89,90,60,61,62,63,64,65,66,67,68,69,70,72,73,74,75,76,77,79,80,81,82,83,84,85,87,88,89,90,61,62,63,64,65,66,67,68,69,71,72,73,74,75,76,78,79,80,81,82,83,84,85,86,87,88,89,90,62,63,64,65,66,67,68,69,70,71,72,73,74,75,76,77,78,79,80,81,82,83,84,85,86,87,89,91,63,64,65,66,67,68,69,70,71,72,73,74,75,76,77,78,80,81,82,84,86,87,89,91,64,65,66,67,68,69,70,71,72,73,74,75,76,77,78,79,80,82,83,84,85,86,87,88,90,91,65,66,67,68,69,70,71,72,73,74,75,76,77,78,80,81,82,84,86,87,89,91,66,67,69,70,71,72,73,74,75,76,77,78,79,80,81,83,84,85,86,87,88,89,91,67,68,69,70,71,72,73,74,75,76,77,78,79,80,81,82,83,85,87,88,89,90,68,69,70,71,72,73,74,75,76,77,78,79,80,81,82,83,84,85,87,88,89,69,70,71,72,73,74,75,76,77,78,79,80,81,83,84,85,86,87,88,89,91,70,71,72,73,75,76,77,78,79,80,81,82,83,84,85,86,87,88,90,91,71,72,73,74,75,76,78,79,80,81,82,83,84,85,86,87,88,89,90,72,73,74,75,76,77,79,80,81,82,83,84,85,87,88,89,90,73,74,75,76,77,78,79,80,81,82,83,84,86,87,89,91,74,75,76,77,78,79,80,81,82,83,85,87,88,89,90,75,76,77,78,79,80,81,82,83,84,85,86,87,88,90,91,76,77,79,80,81,82,83,84,85,87,88,89,90,77,78,79,80,82,83,84,85,86,87,88,90,91,78,79,80,81,82,83,84,85,86,87,88,89,90,79,80,81,82,83,84,85,87,88,89,90,80,81,82,84,86,87,89,91,81,82,83,84,86,87,89,91,82,83,84,85,86,87,88,90,91,83,84,85,86,87,88,89,91,84,86,87,89,91,85,87,88,89,90,86,87,89,91,87,88,89,90,88,89,90,89,91,90,91,91];

USEFUL_RES = [{},
	{1,2,3,4,7,8,9,10,11,12,13,14},
	{1,2,4,7,8,9,10,11},
	{1,2,3,4,5,6,7,8,11,12,13,14},
	{1,2,3,4,6,8,9,10,11,12,13,14},
	{1,2,3,4,6,8,9,10,11,12,13,14},
	{1,2,4,6,7,8,9,10,11},
	{1,2,3,4,8,9,10,11,12,13,14},
	{1,2,3,4,5,6,7,8,11,12,13,14},
	{2,3,7,11,12,13,14},
	{1,2,3,4,8,9,10,11,12,13,14},
	{1,2,3,4,5,7,8,9,10,11,12,13,14},
	{2,4,7,8,9,10,11,12,13},
	{1,2,4,6,8,9,10,11,12,13},
	{1,4,6,8,9,10,11},
	{2,3,7,11,12,13,14},
	{1,2,4,8,9,10},
	{2,12,13},
	{1,2,3,4,7,8,9,10,11,12,13,14},
	{1,2,3,4,5,7,8,9,10,11},
	{1,2,4,6,8,9,10,11},
	{1,2,4,7,8,9,10,11},
	{1,2,3,4,5,7,8,9,10,11,12,13},
	{1,2,6,8,11},
	{2,3,4,5,7,11,12,13,14},
	{1,2,4,8,9,10},
	{1,2,3,4,8,9,10,11,12,13,14},
	{1,2,4,6,8,9,10,11},
	{1,2,3,4,5,6,7,8,11,12,13},
	{1,2,4,8,9,10},
	{2,3,11,12,13,14},
	{2,4,7,8,9,10,11,12,13},
	{1,2,4,7,8,9,10,11},
	{2,3,7,11,12,13,14},
	{2,7,11,12,13},
	{2,3,11,12,13,14},
	{1,2,4,8,9,10},
	{1,2,3,4,5,7,8,9,10,11,12,13,14},
	{3,4,5,7,11},
	{1,2,3,4,6,8,9,10,11,12,13,14},
	{3,4,5,7,11},
	{1,2,4,8,9,10},
	{2,3,4,5,7,8,9,10,11,12,13,14},
	{1,2,3,4,5,7,8,9,10,11},
	{2,3,11,12,13,14},
	{1,2,3,4,8,9,10,11,12,13,14},
	{1,2,3,4,8,9,10,11,12,13,14},
	{1,2,3,4,6,8,9,10,11,12,13,14},
	{1,2,4,8,9,10},
	{1,2,4,6,8,9,10,11},
	{1,2,4,8,9,10,12,13},
	{1,2,3,4,5,7,8,9,10,11,12,13,14},
	{1,2,3,6,8,11,12,13,14},
	{7,11},
	{4,8,9,10},
	{2,3,4,5,7,11,12,13},
	{1,4,6,8,9,10,11},
	{1,2,3,4,6,8,9,10,11,12,13,14},
	{1,2,3,4,6,8,9,10,11,12,13,14},
	{7,11},
	{1,2,3,4,5,6,7,8,11,12,13,14},
	{1,2,4,6,8,9,10,11},
	{1,2,3,4,8,9,10,11,12,13,14},
	{1,2,4,8,9,10,12,13},
	{2,3,4,5,7,11,12,13,14},
	{7,11},
	{1,2,4,8,9,10},
	{1,2,3,6,8,11,12,13,14},
	{2},
	{1,2,4,7,8,9,10,11,12,13},
	{1,2,3,4,6,8,9,10,11,12,13,14},
	{1,2,4,6,8,9,10,11,12,13},
	{1,2,3,4,5,6,7,8,9,10,11},
	{2},
	{2,3,4,5,6,7,8,11,12,13,14},
	{2,3,11,12,13,14},
	{3,4,5,7,11},
	{1,2,3,4,8,9,10,11,12,13,14},
	{2,3,4,7,8,9,10,11,12,13,14},
	{2,3,7,11,12,13,14},
	{1,2,3,4,8,9,10,11,12,13,14},
	{2,3,11,12,13,14},
	{2,4,8,9,10,12,13},
	{1,2,4,8,9,10},
	{2,6,8,11,12,13},
	{1,2,4,6,7,8,9,10,11},
	{1,2,3,4,8,9,10,11,12,13,14},
	{1,2,3,4,5,7,8,9,10,11,12,13},
	{1,2,3,4,5,7,8,9,10,11},
	{1,2,3,4,8,9,10,11,12,13,14},
	{1,2,3,4,7,8,9,10,11,12,13,14},
	{}];

POTENTIAL_ACT = [{2,3,4,5,6,7,8,9,11,12,14,15,17,19,20,21,22,23,24,26,27,28,29,30,33,37,38,40,42,44,46,47,48,49,50,51,52,53,57,58,59,61,62,63,64,67,68,70,71,72,73,78,81,84,86,87,88,89,90,91},
	{2,3,4,5,6,7,8,9,10,11,12,13,14,16,17,18,19,20,21,22,23,24,25,26,27,28,29,30,31,32,33,34,35,36,37,38,40,42,43,44,45,46,47,48,49,50,51,52,53,56,58,59,61,62,63,64,65,67,68,69,70,71,72,73,74,75,76,78,79,80,81,82,83,84,85,86,87,88,89,90,91},
	{2,4,5,6,8,9,10,11,12,16,19,20,23,25,27,29,31,34,36,38,39,40,41,43,44,45,46,47,48,52,53,56,58,59,61,63,65,68,71,73,75,76,77,78,79,80,81,82,87,88,89,90,91},
	{2,3,4,5,6,7,8,9,11,12,13,14,15,17,19,20,21,22,23,25,26,27,28,29,30,32,33,37,38,39,40,41,42,43,44,46,47,48,49,50,51,52,55,56,57,58,59,61,62,63,64,65,67,70,71,72,73,75,77,78,79,81,83,84,86,87,88,89,90,91},
	{4,9,12,20,23,25,29,38,39,41,43,44,52,56,61,65,73,75,77,88,89},
	{4,5,6,7,9,14,15,21,24,28,29,40,48,50,53,57,58,59,61,62,68,71,72,73,75,85,86},
	{2,3,4,7,9,10,12,13,16,19,20,22,23,25,29,32,33,34,35,38,39,41,43,44,52,54,56,60,61,65,66,70,73,75,77,79,80,86,88,89,91},
	{2,3,4,5,6,7,8,9,11,12,13,14,15,17,19,20,21,22,23,24,26,27,28,29,30,32,33,37,38,40,42,43,44,46,47,48,49,50,51,52,53,55,57,58,59,61,62,63,64,67,68,70,71,72,73,75,78,79,81,83,84,85,86,87,88,89,90,91},
	{2,3,5,6,7,8,11,12,13,14,15,17,19,20,21,22,23,26,27,28,30,32,33,37,38,40,42,43,44,46,47,48,49,50,51,52,55,57,58,59,62,63,64,67,70,71,72,73,78,79,81,83,84,86,87,88,89,90,91},
	{2,3,5,6,7,8,11,12,13,14,15,17,19,20,21,22,23,26,27,28,30,32,33,37,38,40,42,43,44,46,47,48,49,50,51,52,55,57,58,59,62,63,64,67,70,71,72,73,78,79,81,83,84,86,87,88,89,90,91},
	{2,3,4,5,6,7,8,9,10,11,12,13,14,15,16,19,20,21,22,23,24,25,27,28,29,31,32,33,34,35,36,38,39,40,41,43,44,45,46,47,48,50,52,53,54,56,57,58,59,60,61,62,63,65,66,68,70,71,72,73,75,76,77,78,79,80,81,82,85,86,87,88,89,90,91},
	{2,4,5,6,8,9,10,11,12,13,14,16,18,19,23,25,27,29,31,32,34,35,36,38,40,43,45,46,47,48,51,52,53,56,58,59,61,63,64,65,68,70,71,72,75,76,78,79,80,81,82,83,85,87,88,90,91},
	{2,4,5,6,8,9,10,11,12,13,14,16,18,19,23,25,27,29,31,32,34,35,36,38,40,43,45,46,47,48,51,52,53,56,58,59,61,63,64,65,68,70,71,72,75,76,78,79,80,81,82,83,85,87,88,90,91},
	{2,4,5,6,8,9,10,11,12,16,19,25,27,31,34,36,38,40,43,45,46,47,48,52,53,58,59,61,63,65,68,71,75,76,78,79,80,81,82,87,90,91}];
